30
3 0 2
4 0 3
4 3 3
5 0 4
5 3 2
6 3 1
6 4 4
6 5 2
7 2 1
7 3 2
7 5 1
7 6 4
8 2 3
8 3 2
8 5 4
9 0 3
9 5 3
9 7 4
9 8 2
10 1 1
10 6 1
10 7 3
10 8 3
11 0 1
11 6 2
11 8 3
11 9 3
11 10 3
12 5 1
12 6 3
12 10 2
13 1 2
13 3 4
13 4 1
13 5 3
13 11 2
14 0 2
14 1 3
14 2 3
14 6 2
14 9 1
14 10 4
14 13 4
15 0 1
15 1 1
15 4 4
15 6 1
15 14 1
16 0 1
16 5 4
16 6 1
16 7 2
16 10 1
16 11 1
16 12 3
16 14 1
16 15 1
17 1 4
17 3 2
17 4 4
17 5 1
17 6 3
17 11 3
17 13 1
17 15 3
18 2 4
18 6 1
18 7 2
18 9 2
18 11 3
18 12 1
18 13 3
18 15 4
19 0 3
19 2 2
19 3 4
19 4 1
19 9 1
19 14 2
19 18 2
20 0 1
20 1 2
20 3 3
20 9 1
20 11 2
20 14 3
20 16 4
20 19 1
21 1 3
21 3 2
21 4 1
21 5 2
21 9 4
21 15 3
21 17 3
21 19 1
21 20 3
22 1 4
22 4 1
22 6 4
22 8 1
22 9 3
22 10 2
22 12 1
22 13 2
22 15 1
22 19 2
22 20 2
22 21 3
23 0 1
23 1 3
23 3 2
23 4 3
23 5 3
23 6 3
23 7 2
23 8 2
23 9 3
23 11 3
23 12 3
23 13 3
23 16 1
23 21 3
24 0 1
24 1 3
24 2 2
24 3 4
24 5 2
24 6 4
24 8 3
24 9 3
24 12 1
24 14 3
24 16 4
24 18 3
24 23 1
25 0 1
25 2 1
25 3 2
25 6 4
25 8 4
25 12 1
25 14 1
25 15 4
25 18 4
25 19 3
25 23 3
25 24 3
26 1 1
26 2 3
26 3 4
26 6 3
26 8 2
26 10 3
26 12 2
26 13 4
26 14 1
26 16 2
26 17 4
26 19 1
26 21 3
26 22 4
26 23 3
26 24 4
26 25 4
27 0 4
27 1 3
27 2 3
27 5 4
27 6 2
27 7 1
27 9 2
27 10 2
27 14 2
27 16 4
27 21 4
27 25 4
27 26 2
28 5 4
28 9 3
28 10 1
28 11 3
28 13 2
28 16 3
28 17 4
28 18 1
28 19 1
28 21 4
28 26 1
29 0 3
29 1 4
29 2 2
29 6 4
29 8 4
29 9 3
29 10 2
29 11 1
29 12 2
29 13 4
29 20 1
29 23 4
29 25 3
